problems/csplib-prob110/ArmiesOfQueens-models/noch/O0/minion/model_2_2-07-solution000001.eprime-solution
language ESSENCE' 1.0

letting black_ExplicitVarSizeWithFlags_Flags be
        [true, true, true, true, false, false, false, false, false, false, false, false, false, false, false, false,
         false, false, false, false, false, false, false, false, false, false, false, false, false, false, false, false,
         false, false, false, false, false, false, false, false, false, false, false, false, false, false, false, false,
         false;
             int(1..49)]
letting black_ExplicitVarSizeWithFlags_Values_1 be
        [1, 1, 1, 1, 1, 1, 1, 1, 1, 1, 1, 1, 1, 1, 1, 1, 1, 1, 1, 1, 1, 1, 1, 1, 1, 1, 1, 1, 1, 1, 1, 1, 1, 1, 1, 1, 1,
         1, 1, 1, 1, 1, 1, 1, 1, 1, 1, 1, 1;
             int(1..49)]
letting black_ExplicitVarSizeWithFlags_Values_2 be
        [1, 2, 3, 4, 1, 1, 1, 1, 1, 1, 1, 1, 1, 1, 1, 1, 1, 1, 1, 1, 1, 1, 1, 1, 1, 1, 1, 1, 1, 1, 1, 1, 1, 1, 1, 1, 1,
         1, 1, 1, 1, 1, 1, 1, 1, 1, 1, 1, 1;
             int(1..49)]
letting white_ExplicitVarSizeWithFlags_Flags be
        [true, true, true, true, false, false, false, false, false, false, false, false, false, false, false, false,
         false, false, false, false, false, false, false, false, false, false, false, false, false, false, false, false,
         false, false, false, false, false, false, false, false, false, false, false, false, false, false, false, false,
         false;
             int(1..49)]
letting white_ExplicitVarSizeWithFlags_Values_1 be
        [2, 2, 3, 6, 1, 1, 1, 1, 1, 1, 1, 1, 1, 1, 1, 1, 1, 1, 1, 1, 1, 1, 1, 1, 1, 1, 1, 1, 1, 1, 1, 1, 1, 1, 1, 1, 1,
         1, 1, 1, 1, 1, 1, 1, 1, 1, 1, 1, 1;
             int(1..49)]
letting white_ExplicitVarSizeWithFlags_Values_2 be
        [6, 7, 7, 5, 1, 1, 1, 1, 1, 1, 1, 1, 1, 1, 1, 1, 1, 1, 1, 1, 1, 1, 1, 1, 1, 1, 1, 1, 1, 1, 1, 1, 1, 1, 1, 1, 1,
         1, 1, 1, 1, 1, 1, 1, 1, 1, 1, 1, 1;
             int(1..49)]
